323607.74,14.33,15.7
309471.05,14.99,16.41
312790.58,14.83,16.24
323749.82,14.33,15.69
306697.92,15.12,16.56
309769.39,14.97,16.4
318858.03,14.55,15.93
303241.24,15.29,16.75
306327.22,15.14,16.58
323909.77,14.32,15.68
305393.78,15.19,16.63
314829.48,14.73,16.14
321220.02,14.44,15.81
314395.5,14.75,16.16
315530.02,14.7,16.1
299153.46,15.5,16.98
318932.38,14.54,15.93
314867.17,14.73,16.13
303043.17,15.3,16.76
319933.28,14.5,15.88
